70
1 0 1
2 0 13
2 1 19
3 0 9
3 1 7
3 2 16
4 0 19
4 1 6
4 2 4
4 3 20
5 0 16
5 1 8
5 2 2
5 3 8
5 4 10
6 0 19
6 1 9
6 2 5
6 3 17
6 4 17
6 5 18
7 0 18
7 1 10
7 2 4
7 3 7
7 4 3
7 5 3
7 6 20
8 0 18
8 1 5
8 2 2
8 3 2
8 4 1
8 5 11
8 6 9
8 7 12
9 0 15
9 1 17
9 2 14
9 3 17
9 4 4
9 5 5
9 6 20
9 7 5
9 8 10
10 0 3
10 1 10
10 2 1
10 3 1
10 4 5
10 5 4
10 6 18
10 7 6
10 8 16
10 9 19
11 0 9
11 1 17
11 2 15
11 3 14
11 4 7
11 5 6
11 6 15
11 7 9
11 8 17
11 9 14
11 10 13
12 0 7
12 1 7
12 2 13
12 3 2
12 4 3
12 5 15
12 6 20
12 7 15
12 8 4
12 9 10
12 10 18
12 11 14
13 0 16
13 1 3
13 2 1
13 3 4
13 4 4
13 5 9
13 6 7
13 7 11
13 8 15
13 9 1
13 10 2
13 11 12
13 12 15
14 0 4
14 1 5
14 2 5
14 3 1
14 4 20
14 5 1
14 6 18
14 7 9
14 8 17
14 9 2
14 10 15
14 11 14
14 12 10
14 13 5
15 0 10
15 1 20
15 2 1
15 3 20
15 4 9
15 5 2
15 6 11
15 7 12
15 8 3
15 9 19
15 10 2
15 11 16
15 12 12
15 13 5
15 14 14
16 0 16
16 1 6
16 2 3
16 3 1
16 4 9
16 5 1
16 6 10
16 7 9
16 8 2
16 9 19
16 10 9
16 11 15
16 12 20
16 13 6
16 14 5
16 15 6
17 0 15
17 1 2
17 2 12
17 3 9
17 4 4
17 5 9
17 6 14
17 7 20
17 8 6
17 9 20
17 10 17
17 11 8
17 12 5
17 13 8
17 14 12
17 15 5
17 16 15
18 0 5
18 1 13
18 2 10
18 3 8
18 4 2
18 5 12
18 6 20
18 7 3
18 8 8
18 9 13
18 10 7
18 11 18
18 12 6
18 13 1
18 14 18
18 15 2
18 16 6
18 17 9
19 0 8
19 1 5
19 2 12
19 3 9
19 4 12
19 5 1
19 6 10
19 7 6
19 8 4
19 9 7
19 10 15
19 11 15
19 12 15
19 13 6
19 14 16
19 15 9
19 16 18
19 17 14
19 18 4
20 0 17
20 1 9
20 2 11
20 3 17
20 4 10
20 5 17
20 6 5
20 7 18
20 8 2
20 9 1
20 10 8
20 11 15
20 12 15
20 13 13
20 14 2
20 15 16
20 16 3
20 17 3
20 18 14
20 19 13
21 0 1
21 1 16
21 2 20
21 3 3
21 4 13
21 5 16
21 6 4
21 7 12
21 8 20
21 9 4
21 10 17
21 11 5
21 12 2
21 13 18
21 14 9
21 15 3
21 16 8
21 17 8
21 18 10
21 19 16
21 20 3
22 0 6
22 1 19
22 2 8
22 3 6
22 4 3
22 5 6
22 6 20
22 7 10
22 8 6
22 9 12
22 10 13
22 11 4
22 12 19
22 13 10
22 14 11
22 15 5
22 16 9
22 17 4
22 18 9
22 19 12
22 20 5
22 21 19
23 0 9
23 1 8
23 2 15
23 3 8
23 4 9
23 5 5
23 6 6
23 7 11
23 8 8
23 9 2
23 10 11
23 11 16
23 12 13
23 13 3
23 14 7
23 15 18
23 16 9
23 17 9
23 18 11
23 19 5
23 20 3
23 21 12
23 22 6
24 0 14
24 1 17
24 2 3
24 3 10
24 4 10
24 5 14
24 6 3
24 7 19
24 8 7
24 9 4
24 10 8
24 11 19
24 12 17
24 13 8
24 14 20
24 15 3
24 16 7
24 17 2
24 18 14
24 19 19
24 20 8
24 21 6
24 22 20
24 23 8
25 0 17
25 1 18
25 2 1
25 3 13
25 4 4
25 5 8
25 6 12
25 7 4
25 8 4
25 9 18
25 10 1
25 11 15
25 12 17
25 13 7
25 14 10
25 15 5
25 16 3
25 17 10
25 18 4
25 19 4
25 20 4
25 21 7
25 22 13
25 23 19
25 24 13
26 0 5
26 1 7
26 2 1
26 3 9
26 4 19
26 5 5
26 6 19
26 7 19
26 8 13
26 9 2
26 10 8
26 11 7
26 12 7
26 13 16
26 14 2
26 15 5
26 16 13
26 17 11
26 18 20
26 19 14
26 20 2
26 21 12
26 22 10
26 23 2
26 24 20
26 25 18
27 0 18
27 1 18
27 2 9
27 3 9
27 4 7
27 5 13
27 6 9
27 7 10
27 8 4
27 9 6
27 10 2
27 11 8
27 12 14
27 13 4
27 14 15
27 15 13
27 16 4
27 17 18
27 18 18
27 19 10
27 20 14
27 21 9
27 22 8
27 23 14
27 24 5
27 25 4
27 26 14
28 0 12
28 1 10
28 2 1
28 3 5
28 4 6
28 5 13
28 6 13
28 7 16
28 8 1
28 9 17
28 10 14
28 11 14
28 12 12
28 13 8
28 14 14
28 15 3
28 16 13
28 17 8
28 18 14
28 19 4
28 20 18
28 21 19
28 22 15
28 23 19
28 24 12
28 25 20
28 26 5
28 27 18
29 0 17
29 1 16
29 2 16
29 3 17
29 4 2
29 5 14
29 6 13
29 7 14
29 8 9
29 9 19
29 10 15
29 11 14
29 12 13
29 13 14
29 14 16
29 15 10
29 16 10
29 17 12
29 18 13
29 19 15
29 20 16
29 21 1
29 22 4
29 23 20
29 24 12
29 25 7
29 26 10
29 27 13
29 28 1
30 0 8
30 1 13
30 2 9
30 3 4
30 4 12
30 5 15
30 6 12
30 7 3
30 8 7
30 9 3
30 10 20
30 11 12
30 12 18
30 13 15
30 14 14
30 15 1
30 16 9
30 17 8
30 18 2
30 19 4
30 20 19
30 21 15
30 22 17
30 23 13
30 24 18
30 25 15
30 26 9
30 27 17
30 28 18
30 29 15
31 0 9
31 1 11
31 2 3
31 3 20
31 4 3
31 5 5
31 6 4
31 7 19
31 8 9
31 9 11
31 10 12
31 11 18
31 12 1
31 13 9
31 14 16
31 15 5
31 16 15
31 17 4
31 18 13
31 19 20
31 20 9
31 21 13
31 22 14
31 23 20
31 24 19
31 25 19
31 26 16
31 27 9
31 28 4
31 29 18
31 30 3
32 0 18
32 1 9
32 2 7
32 3 4
32 4 7
32 5 1
32 6 17
32 7 20
32 8 10
32 9 6
32 10 1
32 11 16
32 12 20
32 13 6
32 14 4
32 15 14
32 16 10
32 17 11
32 18 14
32 19 8
32 20 17
32 21 12
32 22 3
32 23 14
32 24 10
32 25 2
32 26 14
32 27 6
32 28 17
32 29 7
32 30 7
32 31 18
33 0 18
33 1 7
33 2 14
33 3 8
33 4 10
33 5 3
33 6 12
33 7 8
33 8 8
33 9 18
33 10 3
33 11 9
33 12 1
33 13 14
33 14 17
33 15 10
33 16 19
33 17 7
33 18 13
33 19 7
33 20 11
33 21 15
33 22 5
33 23 3
33 24 20
33 25 4
33 26 2
33 27 15
33 28 19
33 29 17
33 30 7
33 31 7
33 32 16
34 0 13
34 1 13
34 2 19
34 3 7
34 4 17
34 5 11
34 6 18
34 7 1
34 8 17
34 9 18
34 10 10
34 11 16
34 12 20
34 13 2
34 14 17
34 15 3
34 16 9
34 17 5
34 18 14
34 19 15
34 20 8
34 21 3
34 22 4
34 23 13
34 24 20
34 25 1
34 26 10
34 27 14
34 28 8
34 29 18
34 30 2
34 31 7
34 32 19
34 33 14
35 0 1
35 1 12
35 2 16
35 3 16
35 4 8
35 5 5
35 6 16
35 7 4
35 8 11
35 9 15
35 10 20
35 11 19
35 12 13
35 13 1
35 14 4
35 15 8
35 16 15
35 17 14
35 18 9
35 19 12
35 20 15
35 21 13
35 22 11
35 23 18
35 24 1
35 25 11
35 26 13
35 27 12
35 28 9
35 29 16
35 30 17
35 31 7
35 32 12
35 33 13
35 34 5
36 0 7
36 1 2
36 2 10
36 3 9
36 4 19
36 5 16
36 6 15
36 7 7
36 8 8
36 9 20
36 10 2
36 11 4
36 12 7
36 13 12
36 14 3
36 15 10
36 16 8
36 17 14
36 18 15
36 19 20
36 20 20
36 21 4
36 22 5
36 23 12
36 24 7
36 25 12
36 26 10
36 27 8
36 28 17
36 29 19
36 30 16
36 31 3
36 32 11
36 33 20
36 34 17
36 35 1
37 0 5
37 1 9
37 2 18
37 3 4
37 4 17
37 5 7
37 6 8
37 7 7
37 8 10
37 9 13
37 10 14
37 11 19
37 12 3
37 13 5
37 14 5
37 15 1
37 16 10
37 17 5
37 18 9
37 19 7
37 20 20
37 21 14
37 22 10
37 23 1
37 24 16
37 25 4
37 26 10
37 27 6
37 28 16
37 29 15
37 30 10
37 31 5
37 32 6
37 33 13
37 34 18
37 35 17
37 36 2
38 0 16
38 1 18
38 2 3
38 3 18
38 4 12
38 5 14
38 6 20
38 7 17
38 8 18
38 9 4
38 10 16
38 11 16
38 12 1
38 13 9
38 14 11
38 15 17
38 16 19
38 17 5
38 18 17
38 19 18
38 20 9
38 21 7
38 22 10
38 23 8
38 24 20
38 25 9
38 26 6
38 27 1
38 28 16
38 29 17
38 30 6
38 31 17
38 32 2
38 33 11
38 34 15
38 35 20
38 36 12
38 37 15
39 0 2
39 1 11
39 2 13
39 3 8
39 4 5
39 5 8
39 6 7
39 7 14
39 8 12
39 9 11
39 10 19
39 11 7
39 12 12
39 13 9
39 14 15
39 15 8
39 16 15
39 17 17
39 18 7
39 19 4
39 20 7
39 21 13
39 22 13
39 23 1
39 24 4
39 25 6
39 26 18
39 27 7
39 28 5
39 29 5
39 30 9
39 31 9
39 32 16
39 33 1
39 34 4
39 35 20
39 36 6
39 37 11
39 38 14
40 0 10
40 1 10
40 2 13
40 3 14
40 4 20
40 5 2
40 6 5
40 7 9
40 8 4
40 9 6
40 10 18
40 11 17
40 12 8
40 13 10
40 14 9
40 15 8
40 16 6
40 17 3
40 18 19
40 19 18
40 20 14
40 21 13
40 22 14
40 23 17
40 24 20
40 25 4
40 26 11
40 27 20
40 28 1
40 29 14
40 30 14
40 31 15
40 32 15
40 33 6
40 34 4
40 35 17
40 36 16
40 37 5
40 38 18
40 39 5
41 0 1
41 1 1
41 2 17
41 3 15
41 4 9
41 5 19
41 6 8
41 7 20
41 8 19
41 9 13
41 10 3
41 11 19
41 12 6
41 13 3
41 14 18
41 15 6
41 16 19
41 17 17
41 18 4
41 19 10
41 20 3
41 21 12
41 22 7
41 23 10
41 24 11
41 25 2
41 26 10
41 27 16
41 28 8
41 29 1
41 30 17
41 31 7
41 32 2
41 33 5
41 34 9
41 35 19
41 36 2
41 37 4
41 38 14
41 39 5
41 40 5
42 0 8
42 1 13
42 2 4
42 3 14
42 4 7
42 5 5
42 6 11
42 7 13
42 8 20
42 9 20
42 10 7
42 11 6
42 12 10
42 13 15
42 14 5
42 15 16
42 16 6
42 17 12
42 18 16
42 19 3
42 20 2
42 21 15
42 22 15
42 23 9
42 24 5
42 25 8
42 26 1
42 27 8
42 28 3
42 29 12
42 30 15
42 31 3
42 32 11
42 33 13
42 34 8
42 35 17
42 36 3
42 37 17
42 38 9
42 39 5
42 40 17
42 41 3
43 0 7
43 1 6
43 2 5
43 3 7
43 4 17
43 5 19
43 6 13
43 7 4
43 8 6
43 9 13
43 10 7
43 11 5
43 12 3
43 13 9
43 14 3
43 15 5
43 16 10
43 17 20
43 18 7
43 19 1
43 20 8
43 21 1
43 22 11
43 23 19
43 24 19
43 25 2
43 26 4
43 27 2
43 28 10
43 29 18
43 30 12
43 31 18
43 32 18
43 33 12
43 34 11
43 35 12
43 36 20
43 37 12
43 38 11
43 39 1
43 40 17
43 41 13
43 42 13
44 0 14
44 1 7
44 2 14
44 3 4
44 4 14
44 5 16
44 6 20
44 7 1
44 8 3
44 9 7
44 10 3
44 11 13
44 12 20
44 13 18
44 14 6
44 15 20
44 16 7
44 17 11
44 18 17
44 19 12
44 20 6
44 21 18
44 22 19
44 23 16
44 24 11
44 25 1
44 26 3
44 27 20
44 28 18
44 29 10
44 30 7
44 31 11
44 32 12
44 33 6
44 34 9
44 35 20
44 36 10
44 37 11
44 38 11
44 39 9
44 40 1
44 41 4
44 42 9
44 43 16
45 0 6
45 1 9
45 2 2
45 3 17
45 4 11
45 5 8
45 6 16
45 7 12
45 8 10
45 9 20
45 10 17
45 11 11
45 12 11
45 13 12
45 14 10
45 15 1
45 16 16
45 17 16
45 18 8
45 19 14
45 20 11
45 21 4
45 22 7
45 23 8
45 24 3
45 25 17
45 26 11
45 27 17
45 28 10
45 29 2
45 30 4
45 31 20
45 32 5
45 33 17
45 34 1
45 35 5
45 36 19
45 37 11
45 38 16
45 39 17
45 40 16
45 41 17
45 42 8
45 43 5
45 44 17
46 0 5
46 1 14
46 2 12
46 3 1
46 4 19
46 5 8
46 6 20
46 7 11
46 8 16
46 9 20
46 10 20
46 11 6
46 12 1
46 13 6
46 14 12
46 15 10
46 16 1
46 17 12
46 18 5
46 19 14
46 20 13
46 21 12
46 22 18
46 23 14
46 24 13
46 25 11
46 26 2
46 27 1
46 28 1
46 29 20
46 30 17
46 31 8
46 32 1
46 33 10
46 34 17
46 35 14
46 36 1
46 37 11
46 38 12
46 39 2
46 40 9
46 41 18
46 42 20
46 43 13
46 44 7
46 45 1
47 0 12
47 1 18
47 2 17
47 3 9
47 4 19
47 5 12
47 6 16
47 7 12
47 8 19
47 9 11
47 10 11
47 11 10
47 12 2
47 13 8
47 14 10
47 15 15
47 16 14
47 17 5
47 18 10
47 19 3
47 20 6
47 21 6
47 22 6
47 23 6
47 24 2
47 25 8
47 26 5
47 27 14
47 28 11
47 29 10
47 30 14
47 31 16
47 32 4
47 33 5
47 34 10
47 35 18
47 36 16
47 37 14
47 38 16
47 39 2
47 40 2
47 41 10
47 42 9
47 43 4
47 44 10
47 45 20
47 46 9
48 0 9
48 1 14
48 2 9
48 3 15
48 4 2
48 5 1
48 6 10
48 7 19
48 8 1
48 9 17
48 10 6
48 11 5
48 12 5
48 13 17
48 14 9
48 15 19
48 16 17
48 17 9
48 18 5
48 19 3
48 20 19
48 21 3
48 22 4
48 23 2
48 24 17
48 25 17
48 26 8
48 27 1
48 28 1
48 29 1
48 30 10
48 31 15
48 32 18
48 33 11
48 34 12
48 35 16
48 36 7
48 37 15
48 38 13
48 39 12
48 40 16
48 41 19
48 42 18
48 43 13
48 44 20
48 45 5
48 46 19
48 47 1
49 0 12
49 1 6
49 2 10
49 3 6
49 4 4
49 5 2
49 6 7
49 7 15
49 8 18
49 9 10
49 10 14
49 11 15
49 12 17
49 13 14
49 14 18
49 15 17
49 16 17
49 17 18
49 18 8
49 19 11
49 20 10
49 21 18
49 22 11
49 23 8
49 24 17
49 25 9
49 26 3
49 27 16
49 28 12
49 29 9
49 30 3
49 31 8
49 32 1
49 33 12
49 34 3
49 35 3
49 36 10
49 37 12
49 38 4
49 39 3
49 40 12
49 41 7
49 42 1
49 43 16
49 44 15
49 45 1
49 46 1
49 47 2
49 48 9
50 0 9
50 1 13
50 2 1
50 3 3
50 4 19
50 5 4
50 6 20
50 7 5
50 8 11
50 9 11
50 10 12
50 11 18
50 12 16
50 13 7
50 14 12
50 15 9
50 16 8
50 17 11
50 18 8
50 19 12
50 20 14
50 21 3
50 22 14
50 23 17
50 24 20
50 25 18
50 26 8
50 27 11
50 28 1
50 29 9
50 30 17
50 31 2
50 32 3
50 33 9
50 34 12
50 35 11
50 36 11
50 37 3
50 38 19
50 39 15
50 40 15
50 41 15
50 42 8
50 43 4
50 44 2
50 45 16
50 46 19
50 47 3
50 48 1
50 49 19
51 0 14
51 1 17
51 2 12
51 3 15
51 4 7
51 5 20
51 6 7
51 7 6
51 8 17
51 9 12
51 10 12
51 11 15
51 12 13
51 13 19
51 14 7
51 15 5
51 16 20
51 17 9
51 18 12
51 19 9
51 20 16
51 21 5
51 22 18
51 23 6
51 24 5
51 25 5
51 26 3
51 27 7
51 28 10
51 29 20
51 30 9
51 31 19
51 32 15
51 33 14
51 34 18
51 35 4
51 36 8
51 37 10
51 38 16
51 39 10
51 40 17
51 41 7
51 42 7
51 43 11
51 44 5
51 45 11
51 46 18
51 47 4
51 48 11
51 49 12
51 50 7
52 0 4
52 1 2
52 2 10
52 3 9
52 4 5
52 5 5
52 6 13
52 7 12
52 8 18
52 9 3
52 10 5
52 11 20
52 12 12
52 13 7
52 14 11
52 15 14
52 16 2
52 17 20
52 18 7
52 19 9
52 20 9
52 21 9
52 22 20
52 23 1
52 24 18
52 25 20
52 26 12
52 27 7
52 28 1
52 29 7
52 30 8
52 31 16
52 32 3
52 33 14
52 34 18
52 35 14
52 36 15
52 37 6
52 38 13
52 39 8
52 40 7
52 41 19
52 42 20
52 43 19
52 44 9
52 45 12
52 46 7
52 47 16
52 48 1
52 49 20
52 50 20
52 51 3
53 0 15
53 1 9
53 2 5
53 3 14
53 4 3
53 5 17
53 6 12
53 7 4
53 8 14
53 9 7
53 10 12
53 11 13
53 12 9
53 13 17
53 14 16
53 15 13
53 16 16
53 17 12
53 18 16
53 19 13
53 20 2
53 21 19
53 22 20
53 23 10
53 24 16
53 25 4
53 26 2
53 27 16
53 28 8
53 29 7
53 30 20
53 31 17
53 32 20
53 33 5
53 34 17
53 35 14
53 36 9
53 37 10
53 38 10
53 39 17
53 40 15
53 41 13
53 42 2
53 43 9
53 44 6
53 45 8
53 46 13
53 47 12
53 48 19
53 49 16
53 50 8
53 51 19
53 52 15
54 0 16
54 1 5
54 2 18
54 3 20
54 4 6
54 5 15
54 6 7
54 7 16
54 8 3
54 9 8
54 10 11
54 11 14
54 12 6
54 13 6
54 14 17
54 15 8
54 16 12
54 17 4
54 18 20
54 19 9
54 20 10
54 21 5
54 22 17
54 23 9
54 24 20
54 25 5
54 26 17
54 27 16
54 28 18
54 29 11
54 30 10
54 31 14
54 32 11
54 33 12
54 34 14
54 35 1
54 36 20
54 37 14
54 38 3
54 39 17
54 40 15
54 41 12
54 42 9
54 43 15
54 44 1
54 45 10
54 46 15
54 47 18
54 48 19
54 49 9
54 50 10
54 51 20
54 52 10
54 53 18
55 0 16
55 1 2
55 2 1
55 3 11
55 4 3
55 5 15
55 6 11
55 7 10
55 8 4
55 9 17
55 10 18
55 11 11
55 12 16
55 13 13
55 14 6
55 15 10
55 16 6
55 17 20
55 18 20
55 19 2
55 20 8
55 21 5
55 22 4
55 23 9
55 24 15
55 25 11
55 26 11
55 27 7
55 28 18
55 29 10
55 30 15
55 31 14
55 32 9
55 33 7
55 34 2
55 35 7
55 36 17
55 37 12
55 38 7
55 39 6
55 40 1
55 41 5
55 42 10
55 43 15
55 44 13
55 45 9
55 46 6
55 47 11
55 48 6
55 49 16
55 50 7
55 51 19
55 52 13
55 53 19
55 54 19
56 0 17
56 1 7
56 2 10
56 3 16
56 4 2
56 5 4
56 6 7
56 7 3
56 8 3
56 9 14
56 10 1
56 11 16
56 12 17
56 13 16
56 14 6
56 15 16
56 16 13
56 17 18
56 18 16
56 19 18
56 20 16
56 21 11
56 22 17
56 23 6
56 24 12
56 25 4
56 26 16
56 27 2
56 28 9
56 29 8
56 30 2
56 31 18
56 32 14
56 33 1
56 34 20
56 35 15
56 36 11
56 37 6
56 38 4
56 39 7
56 40 16
56 41 19
56 42 5
56 43 6
56 44 10
56 45 16
56 46 12
56 47 9
56 48 9
56 49 19
56 50 15
56 51 15
56 52 14
56 53 11
56 54 15
56 55 3
57 0 13
57 1 20
57 2 7
57 3 7
57 4 18
57 5 12
57 6 1
57 7 9
57 8 4
57 9 13
57 10 2
57 11 2
57 12 19
57 13 1
57 14 6
57 15 1
57 16 7
57 17 13
57 18 20
57 19 4
57 20 7
57 21 14
57 22 11
57 23 5
57 24 9
57 25 17
57 26 11
57 27 3
57 28 17
57 29 15
57 30 1
57 31 2
57 32 7
57 33 8
57 34 17
57 35 10
57 36 5
57 37 6
57 38 16
57 39 16
57 40 20
57 41 11
57 42 6
57 43 10
57 44 10
57 45 7
57 46 9
57 47 19
57 48 19
57 49 20
57 50 18
57 51 13
57 52 1
57 53 8
57 54 8
57 55 10
57 56 16
58 0 12
58 1 10
58 2 11
58 3 7
58 4 9
58 5 9
58 6 6
58 7 17
58 8 8
58 9 16
58 10 19
58 11 13
58 12 18
58 13 17
58 14 4
58 15 6
58 16 13
58 17 3
58 18 10
58 19 4
58 20 8
58 21 7
58 22 6
58 23 2
58 24 12
58 25 19
58 26 16
58 27 4
58 28 1
58 29 19
58 30 4
58 31 20
58 32 2
58 33 2
58 34 1
58 35 15
58 36 6
58 37 1
58 38 13
58 39 7
58 40 2
58 41 5
58 42 14
58 43 3
58 44 20
58 45 15
58 46 1
58 47 5
58 48 14
58 49 2
58 50 20
58 51 4
58 52 18
58 53 10
58 54 11
58 55 4
58 56 4
58 57 18
59 0 15
59 1 6
59 2 9
59 3 11
59 4 20
59 5 6
59 6 20
59 7 5
59 8 10
59 9 19
59 10 8
59 11 17
59 12 3
59 13 17
59 14 20
59 15 9
59 16 4
59 17 8
59 18 18
59 19 12
59 20 3
59 21 12
59 22 7
59 23 17
59 24 3
59 25 16
59 26 20
59 27 17
59 28 20
59 29 3
59 30 3
59 31 4
59 32 13
59 33 1
59 34 18
59 35 9
59 36 11
59 37 7
59 38 19
59 39 5
59 40 15
59 41 9
59 42 13
59 43 15
59 44 1
59 45 13
59 46 5
59 47 13
59 48 14
59 49 7
59 50 10
59 51 1
59 52 14
59 53 8
59 54 6
59 55 5
59 56 14
59 57 18
59 58 12
60 0 5
60 1 12
60 2 3
60 3 6
60 4 9
60 5 19
60 6 8
60 7 8
60 8 14
60 9 8
60 10 2
60 11 16
60 12 2
60 13 11
60 14 9
60 15 12
60 16 17
60 17 17
60 18 4
60 19 11
60 20 11
60 21 4
60 22 14
60 23 12
60 24 14
60 25 12
60 26 15
60 27 12
60 28 17
60 29 18
60 30 14
60 31 12
60 32 5
60 33 5
60 34 5
60 35 7
60 36 6
60 37 14
60 38 18
60 39 1
60 40 14
60 41 11
60 42 3
60 43 14
60 44 14
60 45 3
60 46 1
60 47 16
60 48 6
60 49 12
60 50 13
60 51 13
60 52 4
60 53 18
60 54 15
60 55 19
60 56 17
60 57 10
60 58 6
60 59 11
61 0 13
61 1 20
61 2 5
61 3 17
61 4 16
61 5 19
61 6 1
61 7 1
61 8 15
61 9 8
61 10 9
61 11 18
61 12 14
61 13 4
61 14 12
61 15 8
61 16 13
61 17 20
61 18 6
61 19 1
61 20 20
61 21 1
61 22 8
61 23 3
61 24 8
61 25 1
61 26 1
61 27 11
61 28 20
61 29 1
61 30 1
61 31 5
61 32 12
61 33 3
61 34 8
61 35 8
61 36 17
61 37 18
61 38 8
61 39 20
61 40 2
61 41 7
61 42 3
61 43 6
61 44 16
61 45 3
61 46 15
61 47 1
61 48 20
61 49 3
61 50 12
61 51 5
61 52 1
61 53 14
61 54 20
61 55 18
61 56 12
61 57 5
61 58 19
61 59 12
61 60 17
62 0 19
62 1 17
62 2 4
62 3 9
62 4 12
62 5 2
62 6 14
62 7 18
62 8 16
62 9 17
62 10 5
62 11 10
62 12 17
62 13 11
62 14 20
62 15 6
62 16 18
62 17 11
62 18 17
62 19 16
62 20 8
62 21 9
62 22 17
62 23 13
62 24 2
62 25 13
62 26 2
62 27 6
62 28 14
62 29 6
62 30 18
62 31 12
62 32 6
62 33 5
62 34 1
62 35 3
62 36 17
62 37 7
62 38 14
62 39 18
62 40 16
62 41 11
62 42 5
62 43 13
62 44 4
62 45 14
62 46 5
62 47 11
62 48 15
62 49 7
62 50 16
62 51 13
62 52 8
62 53 4
62 54 18
62 55 11
62 56 19
62 57 18
62 58 8
62 59 20
62 60 3
62 61 3
63 0 16
63 1 16
63 2 9
63 3 19
63 4 7
63 5 16
63 6 20
63 7 13
63 8 1
63 9 13
63 10 16
63 11 17
63 12 18
63 13 8
63 14 17
63 15 11
63 16 3
63 17 9
63 18 20
63 19 15
63 20 19
63 21 15
63 22 16
63 23 10
63 24 3
63 25 16
63 26 2
63 27 4
63 28 2
63 29 12
63 30 4
63 31 8
63 32 10
63 33 19
63 34 8
63 35 11
63 36 15
63 37 3
63 38 13
63 39 16
63 40 4
63 41 12
63 42 12
63 43 18
63 44 18
63 45 7
63 46 18
63 47 16
63 48 9
63 49 5
63 50 4
63 51 17
63 52 16
63 53 1
63 54 8
63 55 3
63 56 5
63 57 10
63 58 20
63 59 14
63 60 7
63 61 3
63 62 8
64 0 7
64 1 2
64 2 3
64 3 20
64 4 7
64 5 9
64 6 3
64 7 2
64 8 8
64 9 11
64 10 11
64 11 1
64 12 5
64 13 17
64 14 15
64 15 13
64 16 7
64 17 2
64 18 2
64 19 3
64 20 6
64 21 2
64 22 5
64 23 9
64 24 10
64 25 19
64 26 4
64 27 14
64 28 18
64 29 4
64 30 11
64 31 8
64 32 9
64 33 16
64 34 17
64 35 16
64 36 14
64 37 20
64 38 18
64 39 13
64 40 13
64 41 14
64 42 4
64 43 20
64 44 13
64 45 7
64 46 16
64 47 9
64 48 3
64 49 4
64 50 15
64 51 2
64 52 16
64 53 6
64 54 7
64 55 10
64 56 11
64 57 4
64 58 17
64 59 17
64 60 5
64 61 17
64 62 4
64 63 6
65 0 20
65 1 1
65 2 5
65 3 11
65 4 19
65 5 12
65 6 19
65 7 13
65 8 1
65 9 10
65 10 15
65 11 18
65 12 13
65 13 3
65 14 14
65 15 4
65 16 15
65 17 3
65 18 6
65 19 18
65 20 13
65 21 9
65 22 7
65 23 20
65 24 2
65 25 7
65 26 4
65 27 4
65 28 14
65 29 14
65 30 12
65 31 7
65 32 15
65 33 16
65 34 7
65 35 2
65 36 18
65 37 6
65 38 7
65 39 13
65 40 15
65 41 6
65 42 15
65 43 10
65 44 3
65 45 9
65 46 18
65 47 1
65 48 18
65 49 17
65 50 12
65 51 6
65 52 12
65 53 12
65 54 16
65 55 19
65 56 14
65 57 6
65 58 15
65 59 9
65 60 13
65 61 13
65 62 19
65 63 12
65 64 10
66 0 9
66 1 5
66 2 14
66 3 10
66 4 3
66 5 17
66 6 12
66 7 13
66 8 1
66 9 12
66 10 6
66 11 6
66 12 18
66 13 2
66 14 3
66 15 8
66 16 16
66 17 4
66 18 18
66 19 6
66 20 16
66 21 10
66 22 9
66 23 8
66 24 10
66 25 20
66 26 12
66 27 6
66 28 4
66 29 20
66 30 16
66 31 15
66 32 4
66 33 19
66 34 3
66 35 14
66 36 5
66 37 1
66 38 20
66 39 14
66 40 8
66 41 6
66 42 11
66 43 18
66 44 15
66 45 15
66 46 2
66 47 11
66 48 8
66 49 16
66 50 9
66 51 5
66 52 5
66 53 6
66 54 13
66 55 20
66 56 8
66 57 10
66 58 20
66 59 10
66 60 10
66 61 11
66 62 12
66 63 13
66 64 2
66 65 1
67 0 19
67 1 17
67 2 20
67 3 13
67 4 20
67 5 13
67 6 1
67 7 2
67 8 9
67 9 3
67 10 3
67 11 13
67 12 18
67 13 19
67 14 19
67 15 19
67 16 17
67 17 2
67 18 12
67 19 11
67 20 2
67 21 2
67 22 8
67 23 7
67 24 11
67 25 6
67 26 12
67 27 4
67 28 14
67 29 3
67 30 6
67 31 7
67 32 5
67 33 8
67 34 4
67 35 6
67 36 12
67 37 16
67 38 12
67 39 19
67 40 9
67 41 8
67 42 5
67 43 15
67 44 4
67 45 2
67 46 17
67 47 18
67 48 10
67 49 11
67 50 19
67 51 18
67 52 12
67 53 14
67 54 20
67 55 15
67 56 17
67 57 12
67 58 15
67 59 17
67 60 20
67 61 1
67 62 1
67 63 10
67 64 9
67 65 14
67 66 7
68 0 5
68 1 18
68 2 13
68 3 2
68 4 11
68 5 1
68 6 14
68 7 4
68 8 14
68 9 11
68 10 19
68 11 18
68 12 18
68 13 7
68 14 1
68 15 1
68 16 15
68 17 13
68 18 11
68 19 2
68 20 16
68 21 7
68 22 20
68 23 4
68 24 10
68 25 15
68 26 13
68 27 1
68 28 14
68 29 17
68 30 10
68 31 12
68 32 19
68 33 1
68 34 6
68 35 15
68 36 13
68 37 9
68 38 8
68 39 11
68 40 12
68 41 5
68 42 16
68 43 3
68 44 4
68 45 1
68 46 2
68 47 11
68 48 6
68 49 9
68 50 4
68 51 1
68 52 2
68 53 10
68 54 4
68 55 14
68 56 20
68 57 18
68 58 1
68 59 8
68 60 4
68 61 4
68 62 16
68 63 20
68 64 14
68 65 11
68 66 11
68 67 11
69 0 17
69 1 3
69 2 19
69 3 4
69 4 9
69 5 18
69 6 16
69 7 7
69 8 8
69 9 3
69 10 8
69 11 1
69 12 14
69 13 2
69 14 9
69 15 15
69 16 11
69 17 18
69 18 16
69 19 10
69 20 8
69 21 17
69 22 5
69 23 19
69 24 6
69 25 13
69 26 4
69 27 14
69 28 8
69 29 9
69 30 3
69 31 19
69 32 6
69 33 13
69 34 11
69 35 15
69 36 4
69 37 5
69 38 12
69 39 19
69 40 8
69 41 5
69 42 3
69 43 4
69 44 4
69 45 15
69 46 1
69 47 19
69 48 12
69 49 11
69 50 18
69 51 10
69 52 17
69 53 20
69 54 10
69 55 7
69 56 12
69 57 20
69 58 18
69 59 1
69 60 3
69 61 6
69 62 13
69 63 9
69 64 5
69 65 4
69 66 14
69 67 11
69 68 17
